784 1512
1 2 1
1 29 4
2 3 1
2 30 2
3 4 5
3 31 2
4 5 3
4 32 1
5 6 2
5 33 4
6 7 4
6 34 3
7 8 5
7 35 5
8 9 5
8 36 4
9 10 2
9 37 1
10 11 3
10 38 4
11 12 5
11 39 1
12 13 1
12 40 4
13 14 1
13 41 5
14 15 5
14 42 2
15 16 3
15 43 5
16 17 5
16 44 4
17 18 4
17 45 3
18 19 5
18 46 1
19 20 1
19 47 1
20 21 5
20 48 2
21 22 2
21 49 4
22 23 5
22 50 5
23 24 3
23 51 5
24 25 5
24 52 4
25 26 1
25 53 3
26 27 5
26 54 1
27 28 5
27 55 1
28 56 4
29 30 2
29 57 3
30 31 4
30 58 3
31 32 2
31 59 2
32 33 1
32 60 4
33 34 1
33 61 2
34 35 1
34 62 2
35 36 2
35 63 1
36 37 4
36 64 3
37 38 1
37 65 5
38 39 3
38 66 3
39 40 2
39 67 5
40 41 3
40 68 5
41 42 2
41 69 1
42 43 2
42 70 1
43 44 4
43 71 3
44 45 1
44 72 5
45 46 2
45 73 1
46 47 5
46 74 2
47 48 1
47 75 5
48 49 5
48 76 3
49 50 2
49 77 2
50 51 3
50 78 2
51 52 3
51 79 2
52 53 5
52 80 4
53 54 5
53 81 1
54 55 1
54 82 1
55 56 1
55 83 1
56 84 3
57 58 4
57 85 2
58 59 5
58 86 4
59 60 1
59 87 3
60 61 5
60 88 3
61 62 1
61 89 4
62 63 4
62 90 1
63 64 5
63 91 2
64 65 2
64 92 4
65 66 1
65 93 2
66 67 2
66 94 3
67 68 1
67 95 3
68 69 1
68 96 4
69 70 5
69 97 2
70 71 2
70 98 1
71 72 4
71 99 2
72 73 2
72 100 5
73 74 4
73 101 3
74 75 5
74 102 1
75 76 5
75 103 1
76 77 2
76 104 4
77 78 1
77 105 2
78 79 2
78 106 5
79 80 3
79 107 2
80 81 3
80 108 4
81 82 3
81 109 3
82 83 1
82 110 5
83 84 3
83 111 5
84 112 5
85 86 1
85 113 3
86 87 3
86 114 2
87 88 2
87 115 5
88 89 5
88 116 4
89 90 4
89 117 1
90 91 1
90 118 5
91 92 1
91 119 4
92 93 2
92 120 4
93 94 3
93 121 4
94 95 1
94 122 3
95 96 1
95 123 2
96 97 3
96 124 4
97 98 2
97 125 5
98 99 5
98 126 2
99 100 2
99 127 4
100 101 5
100 128 2
101 102 4
101 129 1
102 103 4
102 130 4
103 104 4
103 131 1
104 105 2
104 132 1
105 106 3
105 133 4
106 107 3
106 134 1
107 108 1
107 135 2
108 109 5
108 136 3
109 110 1
109 137 2
110 111 2
110 138 3
111 112 5
111 139 5
112 140 5
113 114 4
113 141 2
114 115 3
114 142 4
115 116 5
115 143 4
116 117 2
116 144 3
117 118 5
117 145 4
118 119 2
118 146 5
119 120 2
119 147 1
120 121 3
120 148 1
121 122 3
121 149 1
122 123 3
122 150 5
123 124 2
123 151 2
124 125 5
124 152 5
125 126 5
125 153 1
126 127 3
126 154 3
127 128 3
127 155 1
128 129 3
128 156 2
129 130 2
129 157 1
130 131 2
130 158 3
131 132 5
131 159 5
132 133 5
132 160 1
133 134 1
133 161 4
134 135 4
134 162 2
135 136 5
135 163 4
136 137 5
136 164 2
137 138 5
137 165 4
138 139 3
138 166 3
139 140 3
139 167 5
140 168 4
141 142 2
141 169 5
142 143 5
142 170 3
143 144 1
143 171 5
144 145 1
144 172 4
145 146 2
145 173 1
146 147 5
146 174 1
147 148 2
147 175 4
148 149 1
148 176 1
149 150 1
149 177 2
150 151 1
150 178 4
151 152 3
151 179 2
152 153 2
152 180 1
153 154 5
153 181 4
154 155 1
154 182 5
155 156 4
155 183 4
156 157 1
156 184 4
157 158 2
157 185 1
158 159 2
158 186 3
159 160 5
159 187 4
160 161 2
160 188 3
161 162 2
161 189 1
162 163 1
162 190 1
163 164 1
163 191 1
164 165 2
164 192 5
165 166 5
165 193 2
166 167 5
166 194 1
167 168 2
167 195 1
168 196 2
169 170 3
169 197 4
170 171 4
170 198 4
171 172 2
171 199 4
172 173 5
172 200 5
173 174 5
173 201 1
174 175 3
174 202 1
175 176 5
175 203 4
176 177 2
176 204 2
177 178 1
177 205 2
178 179 5
178 206 1
179 180 2
179 207 1
180 181 2
180 208 2
181 182 4
181 209 5
182 183 3
182 210 1
183 184 1
183 211 1
184 185 5
184 212 1
185 186 1
185 213 2
186 187 1
186 214 2
187 188 2
187 215 5
188 189 5
188 216 2
189 190 5
189 217 5
190 191 5
190 218 4
191 192 2
191 219 3
192 193 1
192 220 1
193 194 2
193 221 2
194 195 4
194 222 2
195 196 1
195 223 5
196 224 2
197 198 2
197 225 1
198 199 5
198 226 3
199 200 1
199 227 1
200 201 4
200 228 2
201 202 3
201 229 2
202 203 2
202 230 2
203 204 2
203 231 4
204 205 2
204 232 2
205 206 3
205 233 5
206 207 4
206 234 2
207 208 5
207 235 4
208 209 1
208 236 2
209 210 3
209 237 5
210 211 1
210 238 2
211 212 5
211 239 2
212 213 4
212 240 5
213 214 5
213 241 5
214 215 5
214 242 5
215 216 5
215 243 3
216 217 4
216 244 2
217 218 4
217 245 2
218 219 1
218 246 2
219 220 2
219 247 5
220 221 1
220 248 2
221 222 2
221 249 4
222 223 4
222 250 2
223 224 1
223 251 4
224 252 3
225 226 4
225 253 4
226 227 3
226 254 4
227 228 2
227 255 1
228 229 2
228 256 5
229 230 5
229 257 5
230 231 4
230 258 4
231 232 5
231 259 5
232 233 3
232 260 4
233 234 5
233 261 3
234 235 3
234 262 3
235 236 4
235 263 4
236 237 2
236 264 4
237 238 1
237 265 3
238 239 2
238 266 4
239 240 1
239 267 4
240 241 3
240 268 2
241 242 2
241 269 2
242 243 3
242 270 5
243 244 2
243 271 3
244 245 1
244 272 1
245 246 3
245 273 1
246 247 3
246 274 4
247 248 5
247 275 1
248 249 4
248 276 4
249 250 1
249 277 5
250 251 2
250 278 5
251 252 3
251 279 3
252 280 2
253 254 2
253 281 5
254 255 2
254 282 1
255 256 4
255 283 1
256 257 1
256 284 5
257 258 1
257 285 4
258 259 3
258 286 4
259 260 2
259 287 5
260 261 4
260 288 2
261 262 5
261 289 1
262 263 1
262 290 5
263 264 3
263 291 1
264 265 4
264 292 1
265 266 1
265 293 5
266 267 4
266 294 5
267 268 3
267 295 1
268 269 3
268 296 5
269 270 3
269 297 4
270 271 2
270 298 1
271 272 3
271 299 4
272 273 3
272 300 1
273 274 2
273 301 4
274 275 3
274 302 3
275 276 4
275 303 3
276 277 1
276 304 1
277 278 4
277 305 3
278 279 3
278 306 1
279 280 2
279 307 3
280 308 3
281 282 5
281 309 2
282 283 4
282 310 2
283 284 5
283 311 4
284 285 2
284 312 5
285 286 3
285 313 1
286 287 5
286 314 2
287 288 5
287 315 1
288 289 5
288 316 5
289 290 2
289 317 3
290 291 2
290 318 3
291 292 2
291 319 2
292 293 3
292 320 2
293 294 5
293 321 3
294 295 1
294 322 5
295 296 3
295 323 4
296 297 4
296 324 1
297 298 2
297 325 3
298 299 1
298 326 1
299 300 2
299 327 1
300 301 4
300 328 3
301 302 4
301 329 5
302 303 3
302 330 5
303 304 1
303 331 5
304 305 3
304 332 1
305 306 5
305 333 1
306 307 1
306 334 2
307 308 2
307 335 1
308 336 4
309 310 2
309 337 3
310 311 4
310 338 2
311 312 2
311 339 1
312 313 1
312 340 3
313 314 3
313 341 2
314 315 1
314 342 1
315 316 2
315 343 5
316 317 5
316 344 2
317 318 1
317 345 4
318 319 4
318 346 1
319 320 2
319 347 2
320 321 3
320 348 3
321 322 5
321 349 3
322 323 2
322 350 5
323 324 5
323 351 3
324 325 2
324 352 1
325 326 3
325 353 3
326 327 5
326 354 4
327 328 5
327 355 1
328 329 4
328 356 2
329 330 2
329 357 5
330 331 4
330 358 1
331 332 1
331 359 1
332 333 4
332 360 4
333 334 4
333 361 2
334 335 2
334 362 2
335 336 5
335 363 5
336 364 2
337 338 3
337 365 4
338 339 1
338 366 4
339 340 4
339 367 2
340 341 4
340 368 2
341 342 4
341 369 5
342 343 3
342 370 5
343 344 2
343 371 4
344 345 2
344 372 1
345 346 1
345 373 3
346 347 5
346 374 4
347 348 3
347 375 4
348 349 1
348 376 3
349 350 2
349 377 4
350 351 2
350 378 2
351 352 5
351 379 5
352 353 2
352 380 5
353 354 1
353 381 4
354 355 2
354 382 3
355 356 1
355 383 2
356 357 3
356 384 5
357 358 5
357 385 1
358 359 2
358 386 1
359 360 2
359 387 2
360 361 4
360 388 4
361 362 2
361 389 4
362 363 4
362 390 1
363 364 3
363 391 1
364 392 5
365 366 5
365 393 2
366 367 2
366 394 2
367 368 3
367 395 2
368 369 5
368 396 2
369 370 3
369 397 1
370 371 1
370 398 1
371 372 4
371 399 1
372 373 2
372 400 1
373 374 4
373 401 3
374 375 3
374 402 1
375 376 4
375 403 5
376 377 3
376 404 3
377 378 1
377 405 3
378 379 3
378 406 2
379 380 1
379 407 5
380 381 3
380 408 2
381 382 5
381 409 5
382 383 2
382 410 2
383 384 1
383 411 2
384 385 4
384 412 2
385 386 3
385 413 4
386 387 3
386 414 4
387 388 2
387 415 3
388 389 2
388 416 4
389 390 4
389 417 1
390 391 2
390 418 2
391 392 1
391 419 1
392 420 3
393 394 5
393 421 4
394 395 5
394 422 4
395 396 5
395 423 2
396 397 1
396 424 1
397 398 5
397 425 2
398 399 3
398 426 3
399 400 1
399 427 5
400 401 4
400 428 3
401 402 3
401 429 2
402 403 3
402 430 5
403 404 2
403 431 2
404 405 5
404 432 5
405 406 3
405 433 3
406 407 4
406 434 3
407 408 1
407 435 1
408 409 2
408 436 1
409 410 3
409 437 4
410 411 5
410 438 4
411 412 1
411 439 2
412 413 4
412 440 4
413 414 3
413 441 5
414 415 4
414 442 5
415 416 3
415 443 3
416 417 4
416 444 3
417 418 5
417 445 4
418 419 5
418 446 1
419 420 2
419 447 1
420 448 2
421 422 5
421 449 5
422 423 3
422 450 3
423 424 1
423 451 4
424 425 5
424 452 5
425 426 1
425 453 5
426 427 5
426 454 1
427 428 4
427 455 5
428 429 2
428 456 4
429 430 1
429 457 3
430 431 4
430 458 3
431 432 4
431 459 4
432 433 2
432 460 5
433 434 1
433 461 2
434 435 1
434 462 1
435 436 5
435 463 2
436 437 2
436 464 1
437 438 2
437 465 1
438 439 1
438 466 1
439 440 3
439 467 5
440 441 5
440 468 2
441 442 4
441 469 3
442 443 5
442 470 2
443 444 1
443 471 3
444 445 1
444 472 2
445 446 4
445 473 1
446 447 2
446 474 4
447 448 4
447 475 3
448 476 1
449 450 2
449 477 3
450 451 4
450 478 1
451 452 5
451 479 4
452 453 1
452 480 2
453 454 4
453 481 4
454 455 2
454 482 1
455 456 4
455 483 2
456 457 5
456 484 1
457 458 3
457 485 5
458 459 4
458 486 1
459 460 5
459 487 5
460 461 4
460 488 2
461 462 4
461 489 2
462 463 4
462 490 1
463 464 4
463 491 3
464 465 4
464 492 5
465 466 4
465 493 5
466 467 2
466 494 4
467 468 2
467 495 4
468 469 5
468 496 1
469 470 2
469 497 1
470 471 1
470 498 5
471 472 3
471 499 1
472 473 5
472 500 5
473 474 1
473 501 2
474 475 2
474 502 1
475 476 5
475 503 1
476 504 3
477 478 1
477 505 2
478 479 1
478 506 1
479 480 5
479 507 5
480 481 4
480 508 3
481 482 5
481 509 1
482 483 5
482 510 1
483 484 4
483 511 3
484 485 2
484 512 4
485 486 5
485 513 2
486 487 5
486 514 1
487 488 3
487 515 2
488 489 3
488 516 1
489 490 5
489 517 4
490 491 3
490 518 3
491 492 2
491 519 1
492 493 3
492 520 3
493 494 2
493 521 4
494 495 1
494 522 3
495 496 1
495 523 1
496 497 2
496 524 1
497 498 1
497 525 1
498 499 2
498 526 4
499 500 3
499 527 4
500 501 2
500 528 2
501 502 2
501 529 5
502 503 2
502 530 5
503 504 5
503 531 2
504 532 1
505 506 4
505 533 1
506 507 3
506 534 2
507 508 4
507 535 2
508 509 5
508 536 5
509 510 1
509 537 5
510 511 4
510 538 1
511 512 3
511 539 5
512 513 5
512 540 4
513 514 2
513 541 2
514 515 5
514 542 2
515 516 5
515 543 3
516 517 1
516 544 4
517 518 2
517 545 4
518 519 3
518 546 4
519 520 2
519 547 3
520 521 4
520 548 4
521 522 2
521 549 4
522 523 4
522 550 2
523 524 2
523 551 5
524 525 1
524 552 5
525 526 1
525 553 3
526 527 2
526 554 5
527 528 5
527 555 4
528 529 4
528 556 1
529 530 2
529 557 2
530 531 4
530 558 3
531 532 4
531 559 4
532 560 1
533 534 3
533 561 3
534 535 3
534 562 2
535 536 5
535 563 4
536 537 5
536 564 2
537 538 4
537 565 4
538 539 1
538 566 1
539 540 4
539 567 1
540 541 3
540 568 4
541 542 5
541 569 2
542 543 2
542 570 4
543 544 1
543 571 1
544 545 5
544 572 5
545 546 5
545 573 2
546 547 5
546 574 1
547 548 3
547 575 3
548 549 3
548 576 5
549 550 2
549 577 5
550 551 3
550 578 5
551 552 2
551 579 1
552 553 2
552 580 1
553 554 5
553 581 2
554 555 2
554 582 2
555 556 1
555 583 3
556 557 4
556 584 4
557 558 4
557 585 4
558 559 5
558 586 3
559 560 5
559 587 5
560 588 3
561 562 2
561 589 3
562 563 3
562 590 3
563 564 2
563 591 5
564 565 1
564 592 2
565 566 3
565 593 2
566 567 3
566 594 3
567 568 4
567 595 5
568 569 5
568 596 4
569 570 3
569 597 2
570 571 3
570 598 1
571 572 1
571 599 3
572 573 3
572 600 1
573 574 2
573 601 5
574 575 5
574 602 1
575 576 4
575 603 3
576 577 1
576 604 5
577 578 5
577 605 3
578 579 3
578 606 1
579 580 5
579 607 2
580 581 2
580 608 5
581 582 1
581 609 3
582 583 3
582 610 2
583 584 1
583 611 3
584 585 5
584 612 1
585 586 4
585 613 4
586 587 2
586 614 1
587 588 5
587 615 3
588 616 4
589 590 1
589 617 5
590 591 1
590 618 1
591 592 5
591 619 5
592 593 3
592 620 5
593 594 3
593 621 2
594 595 4
594 622 1
595 596 3
595 623 1
596 597 3
596 624 5
597 598 1
597 625 3
598 599 5
598 626 1
599 600 1
599 627 4
600 601 3
600 628 2
601 602 5
601 629 4
602 603 2
602 630 1
603 604 5
603 631 5
604 605 3
604 632 4
605 606 5
605 633 4
606 607 3
606 634 4
607 608 1
607 635 4
608 609 2
608 636 2
609 610 3
609 637 2
610 611 2
610 638 1
611 612 1
611 639 4
612 613 5
612 640 3
613 614 5
613 641 5
614 615 5
614 642 2
615 616 5
615 643 1
616 644 5
617 618 2
617 645 4
618 619 4
618 646 5
619 620 2
619 647 4
620 621 1
620 648 3
621 622 5
621 649 3
622 623 1
622 650 5
623 624 4
623 651 1
624 625 3
624 652 1
625 626 3
625 653 1
626 627 4
626 654 2
627 628 5
627 655 3
628 629 3
628 656 5
629 630 3
629 657 3
630 631 2
630 658 5
631 632 3
631 659 2
632 633 4
632 660 3
633 634 4
633 661 5
634 635 3
634 662 1
635 636 4
635 663 2
636 637 3
636 664 2
637 638 4
637 665 2
638 639 5
638 666 5
639 640 3
639 667 3
640 641 5
640 668 3
641 642 3
641 669 1
642 643 2
642 670 2
643 644 5
643 671 3
644 672 2
645 646 5
645 673 4
646 647 3
646 674 5
647 648 3
647 675 3
648 649 5
648 676 2
649 650 4
649 677 2
650 651 3
650 678 1
651 652 2
651 679 1
652 653 5
652 680 3
653 654 1
653 681 4
654 655 3
654 682 4
655 656 2
655 683 4
656 657 1
656 684 5
657 658 3
657 685 1
658 659 3
658 686 5
659 660 4
659 687 1
660 661 2
660 688 3
661 662 5
661 689 4
662 663 5
662 690 2
663 664 5
663 691 2
664 665 2
664 692 5
665 666 3
665 693 3
666 667 2
666 694 2
667 668 1
667 695 5
668 669 2
668 696 5
669 670 2
669 697 3
670 671 5
670 698 4
671 672 2
671 699 2
672 700 2
673 674 1
673 701 5
674 675 3
674 702 2
675 676 2
675 703 2
676 677 3
676 704 1
677 678 4
677 705 5
678 679 4
678 706 2
679 680 1
679 707 4
680 681 4
680 708 3
681 682 5
681 709 3
682 683 1
682 710 2
683 684 1
683 711 3
684 685 2
684 712 5
685 686 3
685 713 1
686 687 3
686 714 1
687 688 3
687 715 3
688 689 5
688 716 2
689 690 2
689 717 5
690 691 4
690 718 5
691 692 2
691 719 5
692 693 2
692 720 4
693 694 2
693 721 5
694 695 3
694 722 2
695 696 4
695 723 2
696 697 5
696 724 4
697 698 1
697 725 1
698 699 1
698 726 5
699 700 3
699 727 1
700 728 3
701 702 4
701 729 5
702 703 5
702 730 4
703 704 3
703 731 1
704 705 3
704 732 5
705 706 2
705 733 5
706 707 3
706 734 4
707 708 2
707 735 2
708 709 5
708 736 3
709 710 1
709 737 1
710 711 5
710 738 1
711 712 3
711 739 2
712 713 5
712 740 4
713 714 4
713 741 2
714 715 3
714 742 2
715 716 4
715 743 2
716 717 1
716 744 5
717 718 5
717 745 1
718 719 5
718 746 1
719 720 1
719 747 4
720 721 1
720 748 4
721 722 5
721 749 4
722 723 5
722 750 4
723 724 5
723 751 5
724 725 5
724 752 1
725 726 2
725 753 4
726 727 2
726 754 3
727 728 4
727 755 3
728 756 3
729 730 4
729 757 1
730 731 4
730 758 2
731 732 2
731 759 1
732 733 1
732 760 1
733 734 5
733 761 2
734 735 3
734 762 2
735 736 4
735 763 4
736 737 4
736 764 2
737 738 4
737 765 5
738 739 5
738 766 3
739 740 5
739 767 5
740 741 4
740 768 4
741 742 3
741 769 4
742 743 2
742 770 2
743 744 5
743 771 4
744 745 4
744 772 5
745 746 2
745 773 1
746 747 2
746 774 1
747 748 5
747 775 4
748 749 1
748 776 3
749 750 2
749 777 2
750 751 2
750 778 3
751 752 4
751 779 5
752 753 1
752 780 3
753 754 1
753 781 3
754 755 1
754 782 5
755 756 5
755 783 5
756 784 3
757 758 1
758 759 3
759 760 2
760 761 5
761 762 2
762 763 3
763 764 3
764 765 1
765 766 1
766 767 1
767 768 4
768 769 3
769 770 1
770 771 1
771 772 3
772 773 5
773 774 5
774 775 1
775 776 2
776 777 4
777 778 3
778 779 3
779 780 4
780 781 5
781 782 4
782 783 3
783 784 1
